Version identifier: 22.1.0.0 | 2022-03-09 | 1a383f8ce
CPXPARAM_Threads                                 1
CPXPARAM_MIP_Strategy_VariableSelect             3
CPXPARAM_TimeLimit                               600
Tried aggregator 1 time.
MIP Presolve eliminated 363 rows and 1800 columns.
Reduced MIP has 2169 rows, 6840 columns, and 30877 nonzeros.
Reduced MIP has 5400 binaries, 1440 generals, 0 SOSs, and 0 indicators.
Presolve time = 0.02 sec. (15.08 ticks)
Found incumbent of value 1.017000 after 0.05 sec. (37.16 ticks)
Probing time = 0.01 sec. (6.47 ticks)
Cover probing fixed 0 vars, tightened 3 bounds.
Tried aggregator 1 time.
Detecting symmetries...
Reduced MIP has 2169 rows, 6840 columns, and 30877 nonzeros.
Reduced MIP has 5402 binaries, 1438 generals, 0 SOSs, and 0 indicators.
Presolve time = 0.02 sec. (16.87 ticks)
Probing time = 0.01 sec. (6.47 ticks)
Clique table members: 366.
MIP emphasis: balance optimality and feasibility.
MIP search method: dynamic search.
Parallel mode: none, using 1 thread.
Root relaxation solution time = 0.03 sec. (19.85 ticks)

        Nodes                                         Cuts/
   Node  Left     Objective  IInf  Best Integer    Best Bound    ItCnt     Gap

*     0+    0                            1.0170        0.0000           100.00%
      0     0        0.0000   475        1.0170        0.0000      657  100.00%
*     0+    0                            0.0000        0.0000             0.00%
      0     0        cutoff              0.0000        0.0000      657    0.00%
Elapsed time = 0.36 sec. (303.48 ticks, tree = 0.01 MB, solutions = 2)

Root node processing (before b&c):
  Real time             =    0.36 sec. (303.79 ticks)
Sequential b&c:
  Real time             =    0.00 sec. (0.00 ticks)
                          ------------
Total (root+branch&cut) =    0.36 sec. (303.79 ticks)
Primal number of violations:	0
Dual number of violations:	0
Status:	Optimal
Time:	0.38
Sequence:
	9
	11
	0
	5
	9
	5
	0
	9
	5
	9
	5
	0
	5
	9
	5
	0
	5
	9
	5
	0
	5
	9
	5
	0
	5
	4
	0
	5
	9
	5
	4
	0
	5
	9
	5
	0
	9
	5
	0
	4
	5
	9
	5
	0
	5
	4
	0
	1
	4
	0
	5
	9
	0
	5
	9
	9
	9
	9
	1
	0
	5
	9
	0
	9
	9
	0
	1
	9
	5
	9
	9
	5
	4
	9
	9
	5
	9
	9
	9
	4
	4
	2
	4
	11
	0
	4
	5
	9
	4
	5
	0
	5
	9
	5
	0
	5
	4
	1
	0
	5
	4
	0
	5
	9
	5
	0
	5
	9
	5
	0
	11
	9
	1
	0
	5
	9
	0
	5
	9
	0
	3
	9
	4
	5
	0
	5
	9
	5
	0
	5
	9
	5
	0
	5
	9
	5
	0
	5
	9
	5
	9
	9
	9
	5
	9
	5
	9
	10
	4
	4
	0
	4
	4
	9
	4
	4
	9
	4
	9
	5
	9
	9
	5
	0
	9
	5
	9
	4
	0
	5
	4
	9
	9
	9
	9
	9
	9
	4
	9
	4
	9
	5
	9
	9
	9
	9
	5
	9
	4
	9
	4
	0
	4
	4
	1
	4
	9
	4
	0
	9
	9
	9
	0
	9
	9
	9
	9
	9
	9
	4
	9
	4
	1
	4
	5
	9
	4
	9
	4
	9
	4
	1
	4
	9
	1
	4
	1
	4
	1
	4
	1
	4
	4
	1
	4
	4
	1
	9
	1
	4
	1
	9
	9
	1
	9
	9
	1
	9
	9
	0
	4
	4
	0
	4
	5
	0
	5
	9
	4
	4
	0
	5
	4
	9
	5
	9
	5
	9
	9
	9
	5
	0
	11
	4
	1
	0
	5
	9
	0
	9
	5
	9
	5
	0
	4
	5
	0
	9
	5
	0
	5
	4
	0
	9
	5
	0
	4
	5
	0
	5
	9
	5
	0
	5
	9
	0
	5
	9
	5
	0
	9
	5
	9
	3
	0
	9
	9
	9
	9
	9
	9
	9
	4
	4
	9
	4
	9
	9
	9
	9
	5
	9
	9
	9
	9
	5
	9
	5
	0
	5
	4
	0
	4
	5
	0
	4
	5
	0
	9
	9
	9
	9
	0
	9
	9
	4
	4
	1
	4
	3
